1 100 420 75
0 40.0 50.0 0.0 0.0 0 240
2 25.0 85.0 10.0 20.0 145 175 1 5
3 22.0 75.0 10.0 30.0 50 80 2 5
4 22.0 85.0 10.0 10.0 109 139 3 5
5 20.0 80.0 10.0 40.0 141 171 4 5
6 20.0 85.0 10.0 20.0 41 71 5 5
7 18.0 75.0 10.0 20.0 95 125 6 10
8 15.0 75.0 10.0 20.0 79 109 7 10
9 15.0 80.0 10.0 10.0 91 121 8 10
10 10.0 35.0 10.0 20.0 91 121 9 10
11 10.0 40.0 10.0 30.0 119 149 10 10
12 8.0 40.0 10.0 40.0 59 89 11 15
13 8.0 45.0 10.0 20.0 64 94 12 15
14 5.0 35.0 10.0 10.0 142 172 13 15
15 5.0 45.0 10.0 10.0 35 65 14 15
16 2.0 40.0 10.0 20.0 58 88 15 15
17 0.0 40.0 10.0 20.0 72 102 16 5
18 0.0 45.0 10.0 20.0 149 179 17 5
19 44.0 5.0 10.0 20.0 87 117 18 5
20 42.0 10.0 10.0 40.0 72 102 19 5
21 42.0 15.0 10.0 10.0 122 152 20 5
22 40.0 5.0 10.0 10.0 67 97 21 10
23 40.0 15.0 10.0 40.0 92 122 22 10
24 38.0 5.0 10.0 30.0 65 95 23 10
25 38.0 15.0 10.0 10.0 148 178 24 10
26 35.0 5.0 10.0 20.0 154 184 25 10
27 95.0 30.0 10.0 30.0 115 145 26 15
28 95.0 35.0 10.0 20.0 62 92 27 15
29 92.0 30.0 10.0 10.0 62 92 28 15
30 90.0 35.0 10.0 10.0 67 97 29 15
31 88.0 30.0 10.0 10.0 74 104 30 15
32 88.0 35.0 10.0 20.0 61 91 31 5
33 87.0 30.0 10.0 10.0 131 161 32 5
34 85.0 25.0 10.0 10.0 51 81 33 5
35 85.0 35.0 10.0 30.0 111 141 34 5
36 67.0 85.0 10.0 20.0 139 169 35 5
37 65.0 85.0 10.0 40.0 43 73 36 10
38 65.0 82.0 10.0 10.0 124 154 37 10
39 62.0 80.0 10.0 30.0 75 105 38 10
40 60.0 80.0 10.0 10.0 37 67 39 10
41 60.0 85.0 10.0 30.0 85 115 40 10
42 58.0 75.0 10.0 20.0 92 122 41 15
43 55.0 80.0 10.0 10.0 33 63 42 15
44 55.0 85.0 10.0 20.0 128 158 43 15
45 55.0 82.0 10.0 10.0 64 94 44 15
46 20.0 82.0 10.0 10.0 37 67 45 15
47 18.0 80.0 10.0 10.0 113 143 46 5
48 2.0 45.0 10.0 10.0 45 75 47 5
49 42.0 5.0 10.0 10.0 151 181 48 5
50 42.0 12.0 10.0 10.0 104 134 49 5
51 72.0 35.0 10.0 30.0 116 146 50 5
52 55.0 20.0 10.0 19.0 83 113 51 10
53 25.0 30.0 10.0 3.0 52 82 52 10
54 20.0 50.0 10.0 5.0 91 121 53 10
55 55.0 60.0 10.0 16.0 139 169 54 10
56 30.0 60.0 10.0 16.0 140 170 55 10
57 50.0 35.0 10.0 19.0 130 160 56 15
58 30.0 25.0 10.0 23.0 96 126 57 15
59 15.0 10.0 10.0 20.0 152 182 58 15
60 10.0 20.0 10.0 19.0 42 72 59 15
61 15.0 60.0 10.0 17.0 155 185 60 15
62 45.0 65.0 10.0 9.0 66 96 61 5
63 65.0 35.0 10.0 3.0 52 82 62 5
64 65.0 20.0 10.0 6.0 39 69 63 5
65 45.0 30.0 10.0 17.0 53 83 64 5
66 35.0 40.0 10.0 16.0 11 41 65 5
67 41.0 37.0 10.0 16.0 133 163 66 10
68 64.0 42.0 10.0 9.0 70 100 67 10
69 40.0 60.0 10.0 21.0 144 174 68 10
70 31.0 52.0 10.0 27.0 41 71 69 10
71 35.0 69.0 10.0 23.0 180 210 70 10
72 65.0 55.0 10.0 14.0 65 95 71 15
73 63.0 65.0 10.0 8.0 30 60 72 15
74 2.0 60.0 10.0 5.0 77 107 73 15
75 20.0 20.0 10.0 8.0 141 171 74 15
76 5.0 5.0 10.0 16.0 74 104 75 15
77 60.0 12.0 10.0 31.0 75 105 76 5
78 23.0 3.0 10.0 7.0 150 180 77 5
79 8.0 56.0 10.0 27.0 90 120 78 5
80 6.0 68.0 10.0 30.0 89 119 79 5
81 47.0 47.0 10.0 13.0 192 222 80 5
82 49.0 58.0 10.0 10.0 86 116 81 10
83 27.0 43.0 10.0 9.0 42 72 82 10
84 37.0 31.0 10.0 14.0 35 65 83 10
85 57.0 29.0 10.0 18.0 96 126 84 10
86 63.0 23.0 10.0 2.0 87 117 85 10
87 21.0 24.0 10.0 28.0 87 117 86 15
88 12.0 24.0 10.0 13.0 90 120 87 15
89 24.0 58.0 10.0 19.0 67 97 88 15
90 67.0 5.0 10.0 25.0 144 174 89 15
91 37.0 47.0 10.0 6.0 86 116 90 15
92 49.0 42.0 10.0 13.0 167 197 91 5
93 53.0 43.0 10.0 14.0 14 44 92 5
94 61.0 52.0 10.0 3.0 178 208 93 5
95 57.0 48.0 10.0 23.0 95 125 94 5
96 56.0 37.0 10.0 6.0 34 64 95 5
97 55.0 54.0 10.0 26.0 132 162 96 10
98 4.0 18.0 10.0 35.0 120 150 97 10
99 26.0 52.0 10.0 9.0 46 76 98 10
100 26.0 35.0 10.0 15.0 77 107 99 10
101 31.0 67.0 10.0 3.0 180 210 100 10